(set-info :origin "SVCOMP13 benchmarks generated by Arie Gurfinkel")
(set-info :status unsat)
(set-logic HORN)
(declare-fun cp-rel-bb1.i.i23.i.i () Bool)
(declare-fun cp-rel-entry () Bool)
(declare-fun cp-rel-bb1.i.i (Real Real Real) Bool)
(assert |cp-rel-entry|)
(assert (forall ((?A Real) (?B Real) (?C Real) (?D Bool) )(let (($x196734 (and |cp-rel-entry| (<= ?C 0.0) (>= ?B 1.0) (<= ?B 1.0) (>= ?A 0.0) (<= ?A 0.0) (= ?D true) (>= ?C 0.0))))
(=> $x196734 (|cp-rel-bb1.i.i| ?A ?B ?C))))
)
(assert (forall ((?A Real) (?B Real) (?C Real) (?D Real) (?E Real) (?F Real) (?G Bool) (?H Bool) (?I Bool) (?J Bool) (?K Bool) (?L Bool) (?M Real) (?N Real) (?O Bool) (?P Bool) (?Q Bool) (?R Bool) (?S Bool) (?T Bool) (?U Real) (?V Real) (?W Bool) (?X Bool) (?Y Bool) (?Z Bool) (?A1 Bool) (?B1 Bool) (?C1 Bool) (?D1 Bool) (?E1 Bool) (?F1 Bool) (?G1 Bool) (?H1 Real) (?I1 Real) (?J1 Real) (?K1 Bool) (?L1 Real) (?M1 Bool) (?N1 Bool) (?O1 Real) (?P1 Bool) (?Q1 Real) (?R1 Real) (?S1 Bool) (?T1 Bool) (?U1 Bool) (?V1 Real) (?W1 Bool) (?X1 Bool) )(let (($x383862 (|cp-rel-bb1.i.i| ?D ?E ?F)))
(let (($x298873 (= ?N1 (or ?X1 ?W1))))
(let (($x99355 (or (not ?G) (and ?H ?I (not ?J)))))
(let (($x80578 (or (not ?G) ?I)))
(let (($x866535 (not ?K)))
(let (($x293160 (or $x866535 (and ?G ?L (<= ?M ?N) (>= ?M ?N)) (and ?H ?O ?J (<= ?M ?B) (>= ?M ?B)))))
(let (($x861649 (or $x866535 (and ?L (not ?O)) (and ?O (not ?L)))))
(let (($x472722 (or (not ?P) (and ?K ?Q (not ?R)))))
(let (($x323237 (or (not ?P) ?Q)))
(let (($x402099 (not ?S)))
(let (($x89833 (or $x402099 (and ?P ?T (<= ?U ?V) (>= ?U ?V)) (and ?K ?W ?R (<= ?U ?A) (>= ?U ?A)))))
(let (($x628252 (or $x402099 (and ?T (not ?W)) (and ?W (not ?T)))))
(let (($x480377 (or (not ?X) (and ?S ?Y ?Z))))
(let (($x63613 (or (not ?X) ?Y)))
(let (($x323914 (or (not ?A1) (and ?S ?B1 (not ?Z)))))
(let (($x382644 (or (not ?A1) ?B1)))
(let (($x3733 (or (not ?C1) (and ?A1 ?D1 ?E1))))
(let (($x488890 (or (not ?C1) ?D1)))
(let (($x577628 (>= ?H1 ?L1)))
(let (($x308912 (<= ?H1 ?L1)))
(let (($x105664 (and ?A1 ?M1 (not ?E1) $x308912 $x577628 (<= ?I1 0.0) (>= ?I1 0.0))))
(let (($x83568 (and ?X ?G1 (<= ?H1 ?M) (>= ?H1 ?M) (<= ?I1 ?J1) (>= ?I1 ?J1))))
(let (($x728999 (not ?F1)))
(let (($x480875 (or $x728999 $x83568 (and ?C1 ?K1 $x308912 $x577628 (<= ?I1 ?C) (>= ?I1 ?C)) $x105664)))
(let (($x85266 (or $x728999 (and ?G1 (not ?K1) (not ?M1)) (and ?K1 (not ?G1) (not ?M1)) (and ?M1 (not ?G1) (not ?K1)))))
(let (($x478445 (= ?F1 true)))
(let (($x316005 (= ?N1 true)))
(let (($x566874 (= ?J (= ?O1 0.0))))
(let (($x511073 (= ?Q1 (ite ?P1 1.0 0.0))))
(let (($x481001 (= ?R (= ?R1 0.0))))
(let (($x7011 (= ?V (ite ?S1 1.0 0.0))))
(let (($x419110 (= ?T1 (not (<= ?M 1.0)))))
(let (($x580049 (= ?U1 (not (<= ?M 0.0)))))
(let (($x350302 (= ?V1 (+ (~ 1.0) ?M))))
(let (($x376803 (= ?L1 (ite ?U1 ?V1 ?M))))
(let (($x251790 (= ?E1 (= ?U 0.0))))
(let (($x604773 (= ?W1 (= ?U 0.0))))
(let (($x103674 (= ?X1 (= ?I1 0.0))))
(let (($x4014 (and (|cp-rel-bb1.i.i| ?A ?B ?C) $x103674 $x604773 $x251790 $x376803 $x350302 $x580049 (= ?J1 (ite ?T1 1.0 ?C)) $x419110 (= ?Z (= ?C 0.0)) $x7011 (= ?S1 (= ?A 0.0)) $x481001 (= ?N (+ ?Q1 ?B)) $x511073 (= ?P1 (not (<= 2.0 ?B))) $x566874 (>= ?F ?I1) (<= ?F ?I1) (>= ?E ?H1) (<= ?E ?H1) (>= ?D ?U) (<= ?D ?U) $x316005 $x478445 $x85266 $x480875 $x488890 $x3733 $x382644 $x323914 $x63613 $x480377 $x628252 $x89833 $x323237 $x472722 $x861649 $x293160 $x80578 $x99355 $x298873)))
(=> $x4014 $x383862)))))))))))))))))))))))))))))))))))))))))
)
(assert (forall ((?A Real) (?B Real) (?C Real) (?D Bool) (?E Bool) (?F Bool) (?G Bool) (?H Bool) (?I Bool) (?J Real) (?K Real) (?L Bool) (?M Bool) (?N Bool) (?O Bool) (?P Bool) (?Q Bool) (?R Real) (?S Real) (?T Bool) (?U Bool) (?V Bool) (?W Bool) (?X Bool) (?Y Bool) (?Z Bool) (?A1 Bool) (?B1 Bool) (?C1 Bool) (?D1 Bool) (?E1 Real) (?F1 Real) (?G1 Real) (?H1 Bool) (?I1 Real) (?J1 Bool) (?K1 Bool) (?L1 Real) (?M1 Bool) (?N1 Real) (?O1 Real) (?P1 Bool) (?Q1 Bool) (?R1 Bool) (?S1 Real) (?T1 Bool) (?U1 Bool) )(let (($x298873 (= ?K1 (or ?U1 ?T1))))
(let (($x99355 (or (not ?D) (and ?E ?F (not ?G)))))
(let (($x80578 (or (not ?D) ?F)))
(let (($x866535 (not ?H)))
(let (($x305850 (or $x866535 (and ?D ?I (<= ?J ?K) (>= ?J ?K)) (and ?E ?L ?G (<= ?J ?B) (>= ?J ?B)))))
(let (($x861649 (or $x866535 (and ?I (not ?L)) (and ?L (not ?I)))))
(let (($x472722 (or (not ?M) (and ?H ?N (not ?O)))))
(let (($x323237 (or (not ?M) ?N)))
(let (($x402099 (not ?P)))
(let (($x623034 (or $x402099 (and ?M ?Q (<= ?R ?S) (>= ?R ?S)) (and ?H ?T ?O (<= ?R ?A) (>= ?R ?A)))))
(let (($x628252 (or $x402099 (and ?Q (not ?T)) (and ?T (not ?Q)))))
(let (($x480377 (or (not ?U) (and ?P ?V ?W))))
(let (($x63613 (or (not ?U) ?V)))
(let (($x323914 (or (not ?X) (and ?P ?Y (not ?W)))))
(let (($x382644 (or (not ?X) ?Y)))
(let (($x3733 (or (not ?Z) (and ?X ?A1 ?B1))))
(let (($x488890 (or (not ?Z) ?A1)))
(let (($x577628 (>= ?E1 ?I1)))
(let (($x308912 (<= ?E1 ?I1)))
(let (($x105664 (and ?X ?J1 (not ?B1) $x308912 $x577628 (<= ?F1 0.0) (>= ?F1 0.0))))
(let (($x83568 (and ?U ?D1 (<= ?E1 ?J) (>= ?E1 ?J) (<= ?F1 ?G1) (>= ?F1 ?G1))))
(let (($x728999 (not ?C1)))
(let (($x887053 (or $x728999 $x83568 (and ?Z ?H1 $x308912 $x577628 (<= ?F1 ?C) (>= ?F1 ?C)) $x105664)))
(let (($x85266 (or $x728999 (and ?D1 (not ?H1) (not ?J1)) (and ?H1 (not ?D1) (not ?J1)) (and ?J1 (not ?D1) (not ?H1)))))
(let (($x478445 (= ?C1 true)))
(let (($x566874 (= ?G (= ?L1 0.0))))
(let (($x511073 (= ?N1 (ite ?M1 1.0 0.0))))
(let (($x481001 (= ?O (= ?O1 0.0))))
(let (($x7011 (= ?S (ite ?P1 1.0 0.0))))
(let (($x419110 (= ?Q1 (not (<= ?J 1.0)))))
(let (($x580049 (= ?R1 (not (<= ?J 0.0)))))
(let (($x350302 (= ?S1 (+ (~ 1.0) ?J))))
(let (($x376803 (= ?I1 (ite ?R1 ?S1 ?J))))
(let (($x251790 (= ?B1 (= ?R 0.0))))
(let (($x604773 (= ?T1 (= ?R 0.0))))
(let (($x103674 (= ?U1 (= ?F1 0.0))))
(let (($x383862 (|cp-rel-bb1.i.i| ?A ?B ?C)))
(let (($x419357 (and $x383862 $x103674 $x604773 $x251790 $x376803 $x350302 $x580049 (= ?G1 (ite ?Q1 1.0 ?C)) $x419110 (= ?W (= ?C 0.0)) $x7011 (= ?P1 (= ?A 0.0)) $x481001 (= ?K (+ ?N1 ?B)) $x511073 (= ?M1 (not (<= 2.0 ?B))) $x566874 (not (= ?K1 true)) $x478445 $x85266 $x887053 $x488890 $x3733 $x382644 $x323914 $x63613 $x480377 $x628252 $x623034 $x323237 $x472722 $x861649 $x305850 $x80578 $x99355 $x298873)))
(=> $x419357 |cp-rel-bb1.i.i23.i.i|))))))))))))))))))))))))))))))))))))))))
)
(assert (not cp-rel-bb1.i.i23.i.i))
(check-sat)
